188
0 36 27 29 87 5 60 133 116 122 
88 145 55 114 67 141 66 180 146 101 
34 25 175 94 174 18 167 65 125 42 
73 149 24 162 63 40 173 26 35 52 
13 45 72 120 38 6 62 41 153 187 
111 59 97 8 165 104 2 171 20 57 
136 82 155 58 160 89 49 140 30 168 
178 166 182 50 92 70 28 71 14 117 
170 85 48 75 83 15 128 1 150 54 
184 161 159 77 64 95 158 151 84 118 
110 53 154 102 172 3 81 96 142 39 
163 103 135 112 43 16 9 37 130 91 
121 74 11 157 76 113 183 10 148 44 
107 33 143 22 68 177 98 61 152 100 
126 79 124 185 123 51 80 164 31 17 
90 108 78 134 139 99 46 144 132 47 
147 186 131 21 12 109 86 32 4 138 
19 115 23 93 56 7 119 69 129 137 
169 105 106 127 181 179 176 156 
